[[70, 71, 72, 81, 80, 79, 88, 89, 90, 99, 98, 97, 96, 87, 86, 95, 94, 93, 92], [91, 83, 82, 73, 84, 75, 85, 76, 77, 78, 68, 67, 66, 74, 65, 64, 56, 58, 59], [49, 57, 55, 46, 47, 48, 39, 40, 38, 37, 28, 29, 30, 31, 21, 22, 19, 20, 13, 12, 11], [10, 2, 3, 4, 14, 5, 6, 7, 8, 9, 16, 15, 23, 24, 25, 26, 17, 18], [27, 35, 36, 44, 34, 43, 33, 32, 41, 42, 45, 54, 53, 52, 50, 51, 60, 63, 62, 61, 69]]